SCIP version 5.0.0 [precision: 8 byte] [memory: block] [mode: optimized] [LP solver: NONE] [GitHash: 3bbd232]
Copyright (C) 2002-2017 Konrad-Zuse-Zentrum fuer Informationstechnik Berlin (ZIB)

External codes: 
  Readline EditLine w  GNU library for command line editing (gnu.org/s/readline)
  CppAD 20160000.1     Algorithmic Differentiation of C++ algorithms developed by B. Bell (www.coin-or.org/CppAD)
  ZLIB 1.2.5           General purpose compression library by J. Gailly and M. Adler (zlib.net)
  GMP 6.1.2            GNU Multiple Precision Arithmetic Library developed by T. Granlund (gmplib.org)

user parameter file <scip.set> not found - using default parameters

read problem <../../Split_data/output/parkin/7/3_sample_parkin.logreg>
============

File name	:	../../Split_data/output/parkin/7/3_sample_parkin.logreg
Problem name 	:	3_sample_parkin
Number of data	:	156
Number of var	:	22
The given data has linear independence

[dim=1] time: 0.007562
[dim=2] time: 0.014281
[dim=3] time: 0.018408
[dim=4] time: 0.021774
[dim=5] time: 0.025558
[dim=6] time: 0.028102
[dim=7] Time of forward = 0.030338sec.
AIC: 106.497
k: 6

[dim=22] time: 0.048483
[dim=21] time: 0.065709
[dim=20] time: 0.080212
[dim=19] time: 0.095349
[dim=18] time: 0.110308
[dim=17] time: 0.124183
[dim=16] time: 0.152213
[dim=15] time: 0.154409
[dim=14] time: 0.156417
[dim=13] time: 0.158586
[dim=12] time: 0.162451
[dim=11] time: 0.167248
[dim=10] time: 0.168743
[dim=9] time: 0.170401
[dim=8] Time of backward = 0.171827sec.
AIC: 97.2912
k: 9
